Route #1: 13 36 21 2 19 27 28 29 16 9
Route #2: 23 35 6 22 25 40 4 10 15 42
Route #3: 30 24 26 41 44 31 17
Route #4: 3 18 14 7 39 37
Route #5: 1 8 32
Route #6: 5 20 34 43 33 38 12 11
cost 1373.5376696412086
